;; Mutation-Based Equivalence Benchmark
;; Source:     AutomatArk / instance14047.smt2
;; Mutations:  range_shrink_lo, bound_upper_inc
;; Status:     sat
;;
;; Original regex vs mutated regex
;; Equivalence check: unsat ⟺ L(R1) = L(R2)

(set-info :smt-lib-version 2.6)
(set-info :category "mutation")
(set-info :status sat)
(set-logic QF_S)


;; R1: original
;; R2: mutated (range_shrink_lo, bound_upper_inc)
(assert
  (not
    (=
      (re.++ (re.* (re.++ (re.union (re.range "a" "z") (re.range "A" "Z") (re.range "0" "9")) (re.opt (re.++ ((_ re.loop 0 61) (re.union (re.range "a" "z") (re.range "A" "Z") (re.range "0" "9") (str.to_re "-"))) (re.union (re.range "a" "z") (re.range "A" "Z") (re.range "0" "9")))) (str.to_re "."))) (re.union (re.range "a" "z") (re.range "A" "Z") (re.range "0" "9")) (re.opt (re.++ ((_ re.loop 0 61) (re.union (re.range "a" "z") (re.range "A" "Z") (re.range "0" "9") (str.to_re "-"))) (re.union (re.range "a" "z") (re.range "A" "Z") (re.range "0" "9")))) (str.to_re "\u{a}"))
      (re.++ (re.* (re.++ (re.union (re.range "a" "z") (re.range "A" "Z") (re.range "0" "9")) (re.opt (re.++ ((_ re.loop 0 62) (re.union (re.range "a" "z") (re.range "B" "Z") (re.range "0" "9") (str.to_re "-"))) (re.union (re.range "a" "z") (re.range "A" "Z") (re.range "0" "9")))) (str.to_re "."))) (re.union (re.range "a" "z") (re.range "A" "Z") (re.range "0" "9")) (re.opt (re.++ ((_ re.loop 0 61) (re.union (re.range "a" "z") (re.range "A" "Z") (re.range "0" "9") (str.to_re "-"))) (re.union (re.range "a" "z") (re.range "A" "Z") (re.range "0" "9")))) (str.to_re "\u{a}")))))

(check-sat)
(exit)
